WARNING: for repeatability, setting FPU to use double precision
============================[ Problem Statistics ]=============================
|                                                                             |
|  Number of variables:          8918                                         |
|  Number of clauses:           71958                                         |
|  Parse time:                   0.01 s                                       |
|                                                                             |
c ============================[ Search Statistics ]==============================
c | Conflicts |          ORIGINAL         |          LEARNT          | Progress |
c |           |    Vars  Clauses Literals |    Limit  Clauses Lit/Cl |          |
c ===============================================================================
c ===============================================================================
restarts                  : 270
conflicts                 : 56258          (5673 /sec)
decisions                 : 3845786        (0.00 % random) (387784 /sec)
propagations              : 23102953       (2329552 /sec)
conflict literals         : 4942750        (16.98 % deleted)

conflicts w/ DIP found    : 34727          (61.73 % of conflicts)
conflicts w/ dangerous DIP: 0              (0.00 % of conflicts)
conflicts w/ DIP-learning : 15             (0.03 % of conflicts)
decisions on ext vars     : 1091           (0.03 % of decisions)
total ext vars            : 13          
tried delete ext vars     : 0           
deleted ext vars          : 0           
max ext vars              : 13          

Memory used               : 40.00 MB
CPU time                  : 9.91734 s
DIP computation time      : 0.430103 s (4.34 % of total time)
ER_sel time               : 0.085361 s
ER_add time               : 9.9e-05 s
ER_delC time              : 0 s
ER_delV time              : 0 s
ER_sub time               : 0.095875 s
ER_stat time              : 0 s

UNSATISFIABLE
